Welcome to the CBC MILP Solver 
Version: 2.10.3 
Build Date: Dec 15 2019 

command line - /home/cdmonsalvea/AI_OR_Workflow/.venv/lib/python3.10/site-packages/pulp/solverdir/cbc/linux/64/cbc /tmp/0a042844e3844553aaab937ea0d9b535-pulp.mps -sec 3600 -timeMode elapsed -branch -printingOptions all -solution /tmp/0a042844e3844553aaab937ea0d9b535-pulp.sol (default strategy 1)
At line 2 NAME          MODEL
At line 3 ROWS
At line 35 COLUMNS
At line 756 RHS
At line 787 BOUNDS
At line 803 ENDATA
Problem MODEL has 30 rows, 240 columns and 465 elements
Coin0008I MODEL read with 0 errors
seconds was changed from 1e+100 to 3600
Option for timeMode changed from cpu to elapsed
Continuous objective value is 8.45563e+06 - 0.00 seconds
Cgl0004I processed model has 30 rows, 240 columns (15 integer (15 of which binary)) and 465 elements
Cbc0038I Initial state - 15 integers unsatisfied sum - 2.5005
Cbc0038I Pass   1: suminf.    0.04559 (1) obj. 9.22182e+07 iterations 14
Cbc0038I Solution found of 9.236e+07
Cbc0038I Relaxing continuous gives 8.96513e+07
Cbc0038I Before mini branch and bound, 0 integers at bound fixed and 196 continuous
Cbc0038I Full problem 30 rows 240 columns, reduced to 28 rows 40 columns
Cbc0038I Mini branch and bound improved solution from 8.96513e+07 to 4.01906e+07 (0.01 seconds)
Cbc0038I Freeing continuous variables gives a solution of 3.91126e+07
Cbc0038I Round again with cutoff of 3.60469e+07
Cbc0038I Pass   2: suminf.    0.95441 (8) obj. 3.60469e+07 iterations 13
Cbc0038I Pass   3: suminf.    0.48494 (3) obj. 3.60469e+07 iterations 17
Cbc0038I Pass   4: suminf.    1.36886 (5) obj. 3.60469e+07 iterations 8
Cbc0038I Pass   5: suminf.    0.76113 (5) obj. 3.60469e+07 iterations 2
Cbc0038I Pass   6: suminf.    0.83976 (4) obj. 3.60469e+07 iterations 5
Cbc0038I Pass   7: suminf.    0.83747 (4) obj. 3.60469e+07 iterations 1
Cbc0038I Pass   8: suminf.    0.40456 (4) obj. 3.60469e+07 iterations 11
Cbc0038I Pass   9: suminf.    0.74781 (4) obj. 3.60469e+07 iterations 10
Cbc0038I Pass  10: suminf.    0.25068 (2) obj. 3.60469e+07 iterations 8
Cbc0038I Pass  11: suminf.    0.87452 (5) obj. 3.60469e+07 iterations 7
Cbc0038I Pass  12: suminf.    0.83976 (4) obj. 3.60469e+07 iterations 6
Cbc0038I Pass  13: suminf.    0.83976 (4) obj. 3.60469e+07 iterations 2
Cbc0038I Pass  14: suminf.    0.77862 (4) obj. 3.60469e+07 iterations 1
Cbc0038I Pass  15: suminf.    0.83976 (4) obj. 3.60469e+07 iterations 2
Cbc0038I Pass  16: suminf.    0.83747 (4) obj. 3.60469e+07 iterations 1
Cbc0038I Pass  17: suminf.    0.32490 (3) obj. 3.60469e+07 iterations 14
Cbc0038I Pass  18: suminf.    0.24359 (4) obj. 3.60469e+07 iterations 11
Cbc0038I Pass  19: suminf.    1.36886 (5) obj. 3.60469e+07 iterations 5
Cbc0038I Pass  20: suminf.    0.88551 (4) obj. 3.60469e+07 iterations 2
Cbc0038I Pass  21: suminf.    0.83976 (4) obj. 3.60469e+07 iterations 3
Cbc0038I Pass  22: suminf.    0.83747 (4) obj. 3.60469e+07 iterations 1
Cbc0038I Pass  23: suminf.    0.83976 (4) obj. 3.60469e+07 iterations 2
Cbc0038I Pass  24: suminf.    0.70251 (5) obj. 3.60469e+07 iterations 7
Cbc0038I Pass  25: suminf.    1.36886 (5) obj. 3.60469e+07 iterations 5
Cbc0038I Pass  26: suminf.    0.88551 (4) obj. 3.60469e+07 iterations 2
Cbc0038I Pass  27: suminf.    0.83976 (4) obj. 3.60469e+07 iterations 3
Cbc0038I Pass  28: suminf.    0.83747 (4) obj. 3.60469e+07 iterations 1
Cbc0038I Pass  29: suminf.    0.83976 (4) obj. 3.60469e+07 iterations 2
Cbc0038I Pass  30: suminf.    0.43397 (3) obj. 3.60469e+07 iterations 11
Cbc0038I Pass  31: suminf.    1.26080 (5) obj. 3.60469e+07 iterations 8
Cbc0038I No solution found this major pass
Cbc0038I Before mini branch and bound, 0 integers at bound fixed and 191 continuous
Cbc0038I Full problem 30 rows 240 columns, reduced to 25 rows 43 columns
Cbc0038I Mini branch and bound improved solution from 3.91126e+07 to 3.58982e+07 (0.02 seconds)
Cbc0038I Round again with cutoff of 3.04096e+07
Cbc0038I Pass  31: suminf.    1.07070 (9) obj. 3.04096e+07 iterations 4
Cbc0038I Pass  32: suminf.    1.55694 (7) obj. 3.04096e+07 iterations 19
Cbc0038I Pass  33: suminf.    1.30982 (7) obj. 3.04096e+07 iterations 2
Cbc0038I Pass  34: suminf.    1.02784 (6) obj. 3.04096e+07 iterations 7
Cbc0038I Pass  35: suminf.    0.98803 (6) obj. 3.04096e+07 iterations 1
Cbc0038I Pass  36: suminf.    0.75566 (6) obj. 3.04096e+07 iterations 2
Cbc0038I Pass  37: suminf.    1.02784 (6) obj. 3.04096e+07 iterations 3
Cbc0038I Pass  38: suminf.    1.55694 (7) obj. 3.04096e+07 iterations 1
Cbc0038I Pass  39: suminf.    1.05030 (7) obj. 3.04096e+07 iterations 2
Cbc0038I Pass  40: suminf.    0.69757 (6) obj. 3.04096e+07 iterations 3
Cbc0038I Pass  41: suminf.    1.55694 (7) obj. 3.04096e+07 iterations 5
Cbc0038I Pass  42: suminf.    1.55694 (7) obj. 3.04096e+07 iterations 5
Cbc0038I Pass  43: suminf.    1.14379 (7) obj. 3.04096e+07 iterations 1
Cbc0038I Pass  44: suminf.    1.02784 (6) obj. 3.04096e+07 iterations 5
Cbc0038I Pass  45: suminf.    0.98803 (6) obj. 3.04096e+07 iterations 1
Cbc0038I Pass  46: suminf.    0.98803 (6) obj. 3.04096e+07 iterations 0
Cbc0038I Pass  47: suminf.    0.59269 (4) obj. 3.04096e+07 iterations 7
Cbc0038I Pass  48: suminf.    1.02784 (6) obj. 3.04096e+07 iterations 8
Cbc0038I Pass  49: suminf.    1.01826 (6) obj. 3.04096e+07 iterations 7
Cbc0038I Pass  50: suminf.    1.01826 (6) obj. 3.04096e+07 iterations 0
Cbc0038I Pass  51: suminf.    1.02784 (6) obj. 3.04096e+07 iterations 7
Cbc0038I Pass  52: suminf.    1.22454 (6) obj. 3.04096e+07 iterations 8
Cbc0038I Pass  53: suminf.    1.02784 (6) obj. 3.04096e+07 iterations 7
Cbc0038I Pass  54: suminf.    0.98803 (6) obj. 3.04096e+07 iterations 1
Cbc0038I Pass  55: suminf.    1.02784 (6) obj. 3.04096e+07 iterations 2
Cbc0038I Pass  56: suminf.    1.20496 (7) obj. 3.04096e+07 iterations 4
Cbc0038I Pass  57: suminf.    1.20496 (7) obj. 3.04096e+07 iterations 0
Cbc0038I Pass  58: suminf.    0.93697 (7) obj. 3.04096e+07 iterations 2
Cbc0038I Pass  59: suminf.    1.55694 (7) obj. 3.04096e+07 iterations 6
Cbc0038I Pass  60: suminf.    1.05030 (7) obj. 3.04096e+07 iterations 2
Cbc0038I No solution found this major pass
Cbc0038I Before mini branch and bound, 0 integers at bound fixed and 197 continuous
Cbc0038I Full problem 30 rows 240 columns, reduced to 18 rows 30 columns
Cbc0038I Mini branch and bound did not improve solution (0.02 seconds)
Cbc0038I After 0.02 seconds - Feasibility pump exiting with objective of 3.58982e+07 - took 0.02 seconds
Cbc0012I Integer solution of 35898150 found by feasibility pump after 0 iterations and 0 nodes (0.02 seconds)
Cbc0031I 20 added rows had average density of 26.25
Cbc0013I At root node, 20 cuts changed objective from 8455631.5 to 35889379 in 10 passes
Cbc0014I Cut generator 0 (Probing) - 2 row cuts average 15.0 elements, 0 column cuts (0 active)  in 0.002 seconds - new frequency is -100
Cbc0014I Cut generator 1 (Gomory) - 30 row cuts average 29.5 elements, 0 column cuts (0 active)  in 0.001 seconds - new frequency is 1
Cbc0014I Cut generator 2 (Knapsack) - 0 row cuts average 0.0 elements, 0 column cuts (0 active)  in 0.000 seconds - new frequency is -100
Cbc0014I Cut generator 3 (Clique) - 0 row cuts average 0.0 elements, 0 column cuts (0 active)  in 0.000 seconds - new frequency is -100
Cbc0014I Cut generator 4 (MixedIntegerRounding2) - 2 row cuts average 45.0 elements, 0 column cuts (0 active)  in 0.000 seconds - new frequency is -100
Cbc0014I Cut generator 5 (FlowCover) - 0 row cuts average 0.0 elements, 0 column cuts (0 active)  in 0.001 seconds - new frequency is -100
Cbc0014I Cut generator 6 (TwoMirCuts) - 29 row cuts average 29.0 elements, 0 column cuts (0 active)  in 0.001 seconds - new frequency is 1
Cbc0001I Search completed - best objective 35898150.0366655, took 57 iterations and 0 nodes (0.03 seconds)
Cbc0032I Strong branching done 6 times (29 iterations), fathomed 1 nodes and fixed 0 variables
Cbc0035I Maximum depth 0, 0 variables fixed on reduced cost
Cuts at root node changed objective from 8.45563e+06 to 3.73912e+07
Probing was tried 10 times and created 2 cuts of which 0 were active after adding rounds of cuts (0.002 seconds)
Gomory was tried 10 times and created 30 cuts of which 0 were active after adding rounds of cuts (0.001 seconds)
Knapsack was tried 10 times and created 0 cuts of which 0 were active after adding rounds of cuts (0.000 seconds)
Clique was tried 10 times and created 0 cuts of which 0 were active after adding rounds of cuts (0.000 seconds)
MixedIntegerRounding2 was tried 10 times and created 2 cuts of which 0 were active after adding rounds of cuts (0.000 seconds)
FlowCover was tried 10 times and created 0 cuts of which 0 were active after adding rounds of cuts (0.001 seconds)
TwoMirCuts was tried 10 times and created 29 cuts of which 0 were active after adding rounds of cuts (0.001 seconds)
ZeroHalf was tried 1 times and created 0 cuts of which 0 were active after adding rounds of cuts (0.000 seconds)

Result - Optimal solution found

Objective value:                35898150.03666550
Enumerated nodes:               0
Total iterations:               57
Time (CPU seconds):             0.03
Time (Wallclock seconds):       0.03

Option for printingOptions changed from normal to all
Total time (CPU seconds):       0.04   (Wallclock seconds):       0.04

